data/lp_files/pEFS/74_3.lp
\ Model foo
\ LP format - for model browsing. Use MPS format to capture full model detail.
Minimize
  z
Subject To
 allocateEach[1]: x[1,1] + x[2,1] + x[3,1] + x[4,1] = 1
 allocateEach[2]: x[1,2] + x[2,2] + x[3,2] + x[4,2] = 1
 allocateEach[3]: x[1,3] + x[2,3] + x[3,3] + x[4,3] = 1
 allocateEach[4]: x[1,4] + x[2,4] + x[3,4] + x[4,4] = 1
 allocateEach[5]: x[1,5] + x[2,5] + x[3,5] + x[4,5] = 1
 allocateEach[6]: x[1,6] + x[2,6] + x[3,6] + x[4,6] = 1
 allocateEach[7]: x[1,7] + x[2,7] + x[3,7] + x[4,7] = 1
 allocateEach[8]: x[1,8] + x[2,8] + x[3,8] + x[4,8] = 1
 allocateEach[9]: x[1,9] + x[2,9] + x[3,9] + x[4,9] = 1
 allocateEach[10]: x[1,10] + x[2,10] + x[3,10] + x[4,10] = 1
 allocateEach[11]: x[1,11] + x[2,11] + x[3,11] + x[4,11] = 1
 allocateEach[12]: x[1,12] + x[2,12] + x[3,12] + x[4,12] = 1
 allocateEach[13]: x[1,13] + x[2,13] + x[3,13] + x[4,13] = 1
 allocateEach[14]: x[1,14] + x[2,14] + x[3,14] + x[4,14] = 1
 allocateAllCash: cashProportion[1] + cashProportion[2] + cashProportion[3]
   + cashProportion[4] = 1
 findWorstP[1,2]: z + 0.0263459486517461 cashProportion[1]
   - 0.0263459486517461 cashProportion[2] + 0.1239313424578136 x[1,1]
   + 0.0153860340126197 x[1,2] + 0.0223281914823548 x[1,3]
   + 0.0509267187438252 x[1,4] + 0.0475412643420758 x[1,5]
   + 0.1006942157469735 x[1,6] + 0.07740439713883 x[1,7]
   + 0.0913677499242554 x[1,8] + 0.1200716609803328 x[1,9]
   + 0.1276856401406874 x[1,10] + 0.0312726410496226 x[1,11]
   + 0.0332090682755259 x[1,12] + 0.1022222807687748 x[1,13]
   + 0.0296128462845626 x[1,14] - 0.1239313424578136 x[2,1]
   - 0.0153860340126197 x[2,2] - 0.0223281914823548 x[2,3]
   - 0.0509267187438252 x[2,4] - 0.0475412643420758 x[2,5]
   - 0.1006942157469735 x[2,6] - 0.07740439713883 x[2,7]
   - 0.0913677499242554 x[2,8] - 0.1200716609803328 x[2,9]
   - 0.1276856401406874 x[2,10] - 0.0312726410496226 x[2,11]
   - 0.0332090682755259 x[2,12] - 0.1022222807687748 x[2,13]
   - 0.0296128462845626 x[2,14] >= 0
 findWorstP[1,3]: z + 0.0263459486517461 cashProportion[1]
   - 0.0263459486517461 cashProportion[3] + 0.1239313424578136 x[1,1]
   + 0.0153860340126197 x[1,2] + 0.0223281914823548 x[1,3]
   + 0.0509267187438252 x[1,4] + 0.0475412643420758 x[1,5]
   + 0.1006942157469735 x[1,6] + 0.07740439713883 x[1,7]
   + 0.0913677499242554 x[1,8] + 0.1200716609803328 x[1,9]
   + 0.1276856401406874 x[1,10] + 0.0312726410496226 x[1,11]
   + 0.0332090682755259 x[1,12] + 0.1022222807687748 x[1,13]
   + 0.0296128462845626 x[1,14] - 0.1239313424578136 x[3,1]
   - 0.0153860340126197 x[3,2] - 0.0223281914823548 x[3,3]
   - 0.0509267187438252 x[3,4] - 0.0475412643420758 x[3,5]
   - 0.1006942157469735 x[3,6] - 0.07740439713883 x[3,7]
   - 0.0913677499242554 x[3,8] - 0.1200716609803328 x[3,9]
   - 0.1276856401406874 x[3,10] - 0.0312726410496226 x[3,11]
   - 0.0332090682755259 x[3,12] - 0.1022222807687748 x[3,13]
   - 0.0296128462845626 x[3,14] >= 0
 findWorstP[1,4]: z + 0.0263459486517461 cashProportion[1]
   - 0.0263459486517461 cashProportion[4] + 0.1239313424578136 x[1,1]
   + 0.0153860340126197 x[1,2] + 0.0223281914823548 x[1,3]
   + 0.0509267187438252 x[1,4] + 0.0475412643420758 x[1,5]
   + 0.1006942157469735 x[1,6] + 0.07740439713883 x[1,7]
   + 0.0913677499242554 x[1,8] + 0.1200716609803328 x[1,9]
   + 0.1276856401406874 x[1,10] + 0.0312726410496226 x[1,11]
   + 0.0332090682755259 x[1,12] + 0.1022222807687748 x[1,13]
   + 0.0296128462845626 x[1,14] - 0.1239313424578136 x[4,1]
   - 0.0153860340126197 x[4,2] - 0.0223281914823548 x[4,3]
   - 0.0509267187438252 x[4,4] - 0.0475412643420758 x[4,5]
   - 0.1006942157469735 x[4,6] - 0.07740439713883 x[4,7]
   - 0.0913677499242554 x[4,8] - 0.1200716609803328 x[4,9]
   - 0.1276856401406874 x[4,10] - 0.0312726410496226 x[4,11]
   - 0.0332090682755259 x[4,12] - 0.1022222807687748 x[4,13]
   - 0.0296128462845626 x[4,14] >= 0
 findWorstP[2,1]: z - 0.03496381245411 cashProportion[1]
   + 0.03496381245411 cashProportion[2] - 0.00891577217579805 x[1,1]
   - 0.0927240306282997 x[1,2] - 0.0801720219572742 x[1,3]
   - 0.1441557987482955 x[1,4] - 0.0863256529491976 x[1,5]
   - 0.0916751162546764 x[1,6] - 0.0380231460438446 x[1,7]
   - 0.0875668682913185 x[1,8] - 0.118562288031887 x[1,9]
   - 0.0305933358973462 x[1,10] - 0.0301038425229887 x[1,11]
   - 0.0808188524876752 x[1,12] - 0.0218523827838187 x[1,13]
   - 0.0535470787734695 x[1,14] + 0.00891577217579805 x[2,1]
   + 0.0927240306282997 x[2,2] + 0.0801720219572742 x[2,3]
   + 0.1441557987482955 x[2,4] + 0.0863256529491976 x[2,5]
   + 0.0916751162546764 x[2,6] + 0.0380231460438446 x[2,7]
   + 0.0875668682913185 x[2,8] + 0.118562288031887 x[2,9]
   + 0.0305933358973462 x[2,10] + 0.0301038425229887 x[2,11]
   + 0.0808188524876752 x[2,12] + 0.0218523827838187 x[2,13]
   + 0.0535470787734695 x[2,14] >= 0
 findWorstP[2,3]: z + 0.03496381245411 cashProportion[2]
   - 0.03496381245411 cashProportion[3] + 0.00891577217579805 x[2,1]
   + 0.0927240306282997 x[2,2] + 0.0801720219572742 x[2,3]
   + 0.1441557987482955 x[2,4] + 0.0863256529491976 x[2,5]
   + 0.0916751162546764 x[2,6] + 0.0380231460438446 x[2,7]
   + 0.0875668682913185 x[2,8] + 0.118562288031887 x[2,9]
   + 0.0305933358973462 x[2,10] + 0.0301038425229887 x[2,11]
   + 0.0808188524876752 x[2,12] + 0.0218523827838187 x[2,13]
   + 0.0535470787734695 x[2,14] - 0.00891577217579805 x[3,1]
   - 0.0927240306282997 x[3,2] - 0.0801720219572742 x[3,3]
   - 0.1441557987482955 x[3,4] - 0.0863256529491976 x[3,5]
   - 0.0916751162546764 x[3,6] - 0.0380231460438446 x[3,7]
   - 0.0875668682913185 x[3,8] - 0.118562288031887 x[3,9]
   - 0.0305933358973462 x[3,10] - 0.0301038425229887 x[3,11]
   - 0.0808188524876752 x[3,12] - 0.0218523827838187 x[3,13]
   - 0.0535470787734695 x[3,14] >= 0
 findWorstP[2,4]: z + 0.03496381245411 cashProportion[2]
   - 0.03496381245411 cashProportion[4] + 0.00891577217579805 x[2,1]
   + 0.0927240306282997 x[2,2] + 0.0801720219572742 x[2,3]
   + 0.1441557987482955 x[2,4] + 0.0863256529491976 x[2,5]
   + 0.0916751162546764 x[2,6] + 0.0380231460438446 x[2,7]
   + 0.0875668682913185 x[2,8] + 0.118562288031887 x[2,9]
   + 0.0305933358973462 x[2,10] + 0.0301038425229887 x[2,11]
   + 0.0808188524876752 x[2,12] + 0.0218523827838187 x[2,13]
   + 0.0535470787734695 x[2,14] - 0.00891577217579805 x[4,1]
   - 0.0927240306282997 x[4,2] - 0.0801720219572742 x[4,3]
   - 0.1441557987482955 x[4,4] - 0.0863256529491976 x[4,5]
   - 0.0916751162546764 x[4,6] - 0.0380231460438446 x[4,7]
   - 0.0875668682913185 x[4,8] - 0.118562288031887 x[4,9]
   - 0.0305933358973462 x[4,10] - 0.0301038425229887 x[4,11]
   - 0.0808188524876752 x[4,12] - 0.0218523827838187 x[4,13]
   - 0.0535470787734695 x[4,14] >= 0
 findWorstP[3,1]: z - 0.0227458829951779 cashProportion[1]
   + 0.0227458829951779 cashProportion[3] - 0.0497566190519516 x[1,1]
   - 0.0707624419979984 x[1,2] - 0.0961695933036121 x[1,3]
   - 0.0942703120735147 x[1,4] - 0.0530206532617596 x[1,5]
   - 0.0333568374124284 x[1,6] - 0.1021403875898463 x[1,7]
   - 0.0903693931398417 x[1,8] - 0.042193612956055 x[1,9]
   - 0.0111454826676372 x[1,10] - 0.1136043126194159 x[1,11]
   - 0.1091574924938586 x[1,12] - 0.0353471021745064 x[1,13]
   - 0.0759598762623965 x[1,14] + 0.0497566190519516 x[3,1]
   + 0.0707624419979984 x[3,2] + 0.0961695933036121 x[3,3]
   + 0.0942703120735147 x[3,4] + 0.0530206532617596 x[3,5]
   + 0.0333568374124284 x[3,6] + 0.1021403875898463 x[3,7]
   + 0.0903693931398417 x[3,8] + 0.042193612956055 x[3,9]
   + 0.0111454826676372 x[3,10] + 0.1136043126194159 x[3,11]
   + 0.1091574924938586 x[3,12] + 0.0353471021745064 x[3,13]
   + 0.0759598762623965 x[3,14] >= 0
 findWorstP[3,2]: z - 0.0227458829951779 cashProportion[2]
   + 0.0227458829951779 cashProportion[3] - 0.0497566190519516 x[2,1]
   - 0.0707624419979984 x[2,2] - 0.0961695933036121 x[2,3]
   - 0.0942703120735147 x[2,4] - 0.0530206532617596 x[2,5]
   - 0.0333568374124284 x[2,6] - 0.1021403875898463 x[2,7]
   - 0.0903693931398417 x[2,8] - 0.042193612956055 x[2,9]
   - 0.0111454826676372 x[2,10] - 0.1136043126194159 x[2,11]
   - 0.1091574924938586 x[2,12] - 0.0353471021745064 x[2,13]
   - 0.0759598762623965 x[2,14] + 0.0497566190519516 x[3,1]
   + 0.0707624419979984 x[3,2] + 0.0961695933036121 x[3,3]
   + 0.0942703120735147 x[3,4] + 0.0530206532617596 x[3,5]
   + 0.0333568374124284 x[3,6] + 0.1021403875898463 x[3,7]
   + 0.0903693931398417 x[3,8] + 0.042193612956055 x[3,9]
   + 0.0111454826676372 x[3,10] + 0.1136043126194159 x[3,11]
   + 0.1091574924938586 x[3,12] + 0.0353471021745064 x[3,13]
   + 0.0759598762623965 x[3,14] >= 0
 findWorstP[3,4]: z + 0.0227458829951779 cashProportion[3]
   - 0.0227458829951779 cashProportion[4] + 0.0497566190519516 x[3,1]
   + 0.0707624419979984 x[3,2] + 0.0961695933036121 x[3,3]
   + 0.0942703120735147 x[3,4] + 0.0530206532617596 x[3,5]
   + 0.0333568374124284 x[3,6] + 0.1021403875898463 x[3,7]
   + 0.0903693931398417 x[3,8] + 0.042193612956055 x[3,9]
   + 0.0111454826676372 x[3,10] + 0.1136043126194159 x[3,11]
   + 0.1091574924938586 x[3,12] + 0.0353471021745064 x[3,13]
   + 0.0759598762623965 x[3,14] - 0.0497566190519516 x[4,1]
   - 0.0707624419979984 x[4,2] - 0.0961695933036121 x[4,3]
   - 0.0942703120735147 x[4,4] - 0.0530206532617596 x[4,5]
   - 0.0333568374124284 x[4,6] - 0.1021403875898463 x[4,7]
   - 0.0903693931398417 x[4,8] - 0.042193612956055 x[4,9]
   - 0.0111454826676372 x[4,10] - 0.1136043126194159 x[4,11]
   - 0.1091574924938586 x[4,12] - 0.0353471021745064 x[4,13]
   - 0.0759598762623965 x[4,14] >= 0
 findWorstP[4,1]: z - 0.030419638918886 cashProportion[1]
   + 0.030419638918886 cashProportion[4] - 0.0370663300226626 x[1,1]
   - 0.1123853559858244 x[1,2] - 0.0250657824691621 x[1,3]
   - 0.1299831171004 x[1,4] - 0.0772354632150516 x[1,5]
   - 0.0297199872237516 x[1,6] - 0.0647329916193895 x[1,7]
   - 0.0765358115199172 x[1,8] - 0.0942552511901684 x[1,9]
   - 0.0927798987026024 x[1,10] - 0.00793952575782925 x[1,11]
   - 0.0706648212085722 x[1,12] - 0.0464355788096795 x[1,13]
   - 0.1047804462561029 x[1,14] + 0.0370663300226626 x[4,1]
   + 0.1123853559858244 x[4,2] + 0.0250657824691621 x[4,3]
   + 0.1299831171004 x[4,4] + 0.0772354632150516 x[4,5]
   + 0.0297199872237516 x[4,6] + 0.0647329916193895 x[4,7]
   + 0.0765358115199172 x[4,8] + 0.0942552511901684 x[4,9]
   + 0.0927798987026024 x[4,10] + 0.00793952575782925 x[4,11]
   + 0.0706648212085722 x[4,12] + 0.0464355788096795 x[4,13]
   + 0.1047804462561029 x[4,14] >= 0
 findWorstP[4,2]: z - 0.030419638918886 cashProportion[2]
   + 0.030419638918886 cashProportion[4] - 0.0370663300226626 x[2,1]
   - 0.1123853559858244 x[2,2] - 0.0250657824691621 x[2,3]
   - 0.1299831171004 x[2,4] - 0.0772354632150516 x[2,5]
   - 0.0297199872237516 x[2,6] - 0.0647329916193895 x[2,7]
   - 0.0765358115199172 x[2,8] - 0.0942552511901684 x[2,9]
   - 0.0927798987026024 x[2,10] - 0.00793952575782925 x[2,11]
   - 0.0706648212085722 x[2,12] - 0.0464355788096795 x[2,13]
   - 0.1047804462561029 x[2,14] + 0.0370663300226626 x[4,1]
   + 0.1123853559858244 x[4,2] + 0.0250657824691621 x[4,3]
   + 0.1299831171004 x[4,4] + 0.0772354632150516 x[4,5]
   + 0.0297199872237516 x[4,6] + 0.0647329916193895 x[4,7]
   + 0.0765358115199172 x[4,8] + 0.0942552511901684 x[4,9]
   + 0.0927798987026024 x[4,10] + 0.00793952575782925 x[4,11]
   + 0.0706648212085722 x[4,12] + 0.0464355788096795 x[4,13]
   + 0.1047804462561029 x[4,14] >= 0
 findWorstP[4,3]: z - 0.030419638918886 cashProportion[3]
   + 0.030419638918886 cashProportion[4] - 0.0370663300226626 x[3,1]
   - 0.1123853559858244 x[3,2] - 0.0250657824691621 x[3,3]
   - 0.1299831171004 x[3,4] - 0.0772354632150516 x[3,5]
   - 0.0297199872237516 x[3,6] - 0.0647329916193895 x[3,7]
   - 0.0765358115199172 x[3,8] - 0.0942552511901684 x[3,9]
   - 0.0927798987026024 x[3,10] - 0.00793952575782925 x[3,11]
   - 0.0706648212085722 x[3,12] - 0.0464355788096795 x[3,13]
   - 0.1047804462561029 x[3,14] + 0.0370663300226626 x[4,1]
   + 0.1123853559858244 x[4,2] + 0.0250657824691621 x[4,3]
   + 0.1299831171004 x[4,4] + 0.0772354632150516 x[4,5]
   + 0.0297199872237516 x[4,6] + 0.0647329916193895 x[4,7]
   + 0.0765358115199172 x[4,8] + 0.0942552511901684 x[4,9]
   + 0.0927798987026024 x[4,10] + 0.00793952575782925 x[4,11]
   + 0.0706648212085722 x[4,12] + 0.0464355788096795 x[4,13]
   + 0.1047804462561029 x[4,14] >= 0
Bounds
 z <= 1
 -infinity <= cashProportion[1] <= 1
 -infinity <= cashProportion[2] <= 1
 -infinity <= cashProportion[3] <= 1
 -infinity <= cashProportion[4] <= 1
Binaries
 x[1,1] x[1,2] x[1,3] x[1,4] x[1,5] x[1,6] x[1,7] x[1,8] x[1,9] x[1,10]
 x[1,11] x[1,12] x[1,13] x[1,14] x[2,1] x[2,2] x[2,3] x[2,4] x[2,5] x[2,6]
 x[2,7] x[2,8] x[2,9] x[2,10] x[2,11] x[2,12] x[2,13] x[2,14] x[3,1] x[3,2]
 x[3,3] x[3,4] x[3,5] x[3,6] x[3,7] x[3,8] x[3,9] x[3,10] x[3,11] x[3,12]
 x[3,13] x[3,14] x[4,1] x[4,2] x[4,3] x[4,4] x[4,5] x[4,6] x[4,7] x[4,8]
 x[4,9] x[4,10] x[4,11] x[4,12] x[4,13] x[4,14]
End
