data/mps_files/q3/74_3.mps
NAME foo
ROWS
 N  OBJ
 E  allocateEach[1]
 E  allocateEach[2]
 E  allocateEach[3]
 E  allocateEach[4]
 E  allocateEach[5]
 E  allocateEach[6]
 E  allocateEach[7]
 E  allocateEach[8]
 E  allocateEach[9]
 E  allocateEach[10]
 E  allocateEach[11]
 E  allocateEach[12]
 E  allocateEach[13]
 E  allocateEach[14]
 E  allocateAllCash
 G  findWorstP[1,2]
 G  findWorstP[1,3]
 G  findWorstP[1,4]
 G  findWorstP[2,1]
 G  findWorstP[2,3]
 G  findWorstP[2,4]
 G  findWorstP[3,1]
 G  findWorstP[3,2]
 G  findWorstP[3,4]
 G  findWorstP[4,1]
 G  findWorstP[4,2]
 G  findWorstP[4,3]
COLUMNS
    z         OBJ       1
    z         findWorstP[1,2]  1
    z         findWorstP[1,3]  1
    z         findWorstP[1,4]  1
    z         findWorstP[2,1]  1
    z         findWorstP[2,3]  1
    z         findWorstP[2,4]  1
    z         findWorstP[3,1]  1
    z         findWorstP[3,2]  1
    z         findWorstP[3,4]  1
    z         findWorstP[4,1]  1
    z         findWorstP[4,2]  1
    z         findWorstP[4,3]  1
    cashProportion[1]  allocateAllCash  1
    cashProportion[1]  findWorstP[1,2]  2.6345948651746082e-02
    cashProportion[1]  findWorstP[1,3]  2.6345948651746082e-02
    cashProportion[1]  findWorstP[1,4]  2.6345948651746082e-02
    cashProportion[1]  findWorstP[2,1]  -3.4963812454109996e-02
    cashProportion[1]  findWorstP[3,1]  -2.2745882995177880e-02
    cashProportion[1]  findWorstP[4,1]  -3.0419638918886029e-02
    cashProportion[2]  allocateAllCash  1
    cashProportion[2]  findWorstP[1,2]  -2.6345948651746082e-02
    cashProportion[2]  findWorstP[2,1]  3.4963812454109996e-02
    cashProportion[2]  findWorstP[2,3]  3.4963812454109996e-02
    cashProportion[2]  findWorstP[2,4]  3.4963812454109996e-02
    cashProportion[2]  findWorstP[3,2]  -2.2745882995177880e-02
    cashProportion[2]  findWorstP[4,2]  -3.0419638918886029e-02
    cashProportion[3]  allocateAllCash  1
    cashProportion[3]  findWorstP[1,3]  -2.6345948651746082e-02
    cashProportion[3]  findWorstP[2,3]  -3.4963812454109996e-02
    cashProportion[3]  findWorstP[3,1]  2.2745882995177880e-02
    cashProportion[3]  findWorstP[3,2]  2.2745882995177880e-02
    cashProportion[3]  findWorstP[3,4]  2.2745882995177880e-02
    cashProportion[3]  findWorstP[4,3]  -3.0419638918886029e-02
    cashProportion[4]  allocateAllCash  1
    cashProportion[4]  findWorstP[1,4]  -2.6345948651746082e-02
    cashProportion[4]  findWorstP[2,4]  -3.4963812454109996e-02
    cashProportion[4]  findWorstP[3,4]  -2.2745882995177880e-02
    cashProportion[4]  findWorstP[4,1]  3.0419638918886029e-02
    cashProportion[4]  findWorstP[4,2]  3.0419638918886029e-02
    cashProportion[4]  findWorstP[4,3]  3.0419638918886029e-02
    MARKER    'MARKER'                 'INTORG'
    x[1,1]    allocateEach[1]  1
    x[1,1]    findWorstP[1,2]  1.2393134245781356e-01
    x[1,1]    findWorstP[1,3]  1.2393134245781356e-01
    x[1,1]    findWorstP[1,4]  1.2393134245781356e-01
    x[1,1]    findWorstP[2,1]  -8.9157721757980486e-03
    x[1,1]    findWorstP[3,1]  -4.9756619051951605e-02
    x[1,1]    findWorstP[4,1]  -3.7066330022662623e-02
    x[1,2]    allocateEach[2]  1
    x[1,2]    findWorstP[1,2]  1.5386034012619712e-02
    x[1,2]    findWorstP[1,3]  1.5386034012619712e-02
    x[1,2]    findWorstP[1,4]  1.5386034012619712e-02
    x[1,2]    findWorstP[2,1]  -0.0927240306282997
    x[1,2]    findWorstP[3,1]  -7.0762441997998374e-02
    x[1,2]    findWorstP[4,1]  -1.1238535598582443e-01
    x[1,3]    allocateEach[3]  1
    x[1,3]    findWorstP[1,2]  2.2328191482354806e-02
    x[1,3]    findWorstP[1,3]  2.2328191482354806e-02
    x[1,3]    findWorstP[1,4]  2.2328191482354806e-02
    x[1,3]    findWorstP[2,1]  -8.0172021957274214e-02
    x[1,3]    findWorstP[3,1]  -9.6169593303612064e-02
    x[1,3]    findWorstP[4,1]  -2.5065782469162086e-02
    x[1,4]    allocateEach[4]  1
    x[1,4]    findWorstP[1,2]  5.0926718743825178e-02
    x[1,4]    findWorstP[1,3]  5.0926718743825178e-02
    x[1,4]    findWorstP[1,4]  5.0926718743825178e-02
    x[1,4]    findWorstP[2,1]  -1.4415579874829551e-01
    x[1,4]    findWorstP[3,1]  -0.0942703120735147
    x[1,4]    findWorstP[4,1]  -0.1299831171004
    x[1,5]    allocateEach[5]  1
    x[1,5]    findWorstP[1,2]  4.7541264342075805e-02
    x[1,5]    findWorstP[1,3]  4.7541264342075805e-02
    x[1,5]    findWorstP[1,4]  4.7541264342075805e-02
    x[1,5]    findWorstP[2,1]  -8.6325652949197570e-02
    x[1,5]    findWorstP[3,1]  -5.3020653261759629e-02
    x[1,5]    findWorstP[4,1]  -7.7235463215051633e-02
    x[1,6]    allocateEach[6]  1
    x[1,6]    findWorstP[1,2]  1.0069421574697351e-01
    x[1,6]    findWorstP[1,3]  1.0069421574697351e-01
    x[1,6]    findWorstP[1,4]  1.0069421574697351e-01
    x[1,6]    findWorstP[2,1]  -0.0916751162546764
    x[1,6]    findWorstP[3,1]  -3.3356837412428356e-02
    x[1,6]    findWorstP[4,1]  -2.9719987223751645e-02
    x[1,7]    allocateEach[7]  1
    x[1,7]    findWorstP[1,2]  7.7404397138829989e-02
    x[1,7]    findWorstP[1,3]  7.7404397138829989e-02
    x[1,7]    findWorstP[1,4]  7.7404397138829989e-02
    x[1,7]    findWorstP[2,1]  -3.8023146043844616e-02
    x[1,7]    findWorstP[3,1]  -1.0214038758984625e-01
    x[1,7]    findWorstP[4,1]  -6.4732991619389460e-02
    x[1,8]    allocateEach[8]  1
    x[1,8]    findWorstP[1,2]  0.0913677499242554
    x[1,8]    findWorstP[1,3]  0.0913677499242554
    x[1,8]    findWorstP[1,4]  0.0913677499242554
    x[1,8]    findWorstP[2,1]  -8.7566868291318475e-02
    x[1,8]    findWorstP[3,1]  -0.0903693931398417
    x[1,8]    findWorstP[4,1]  -7.6535811519917243e-02
    x[1,9]    allocateEach[9]  1
    x[1,9]    findWorstP[1,2]  1.2007166098033277e-01
    x[1,9]    findWorstP[1,3]  1.2007166098033277e-01
    x[1,9]    findWorstP[1,4]  1.2007166098033277e-01
    x[1,9]    findWorstP[2,1]  -0.118562288031887
    x[1,9]    findWorstP[3,1]  -4.2193612956054963e-02
    x[1,9]    findWorstP[4,1]  -9.4255251190168365e-02
    x[1,10]   allocateEach[10]  1
    x[1,10]   findWorstP[1,2]  1.2768564014068740e-01
    x[1,10]   findWorstP[1,3]  1.2768564014068740e-01
    x[1,10]   findWorstP[1,4]  1.2768564014068740e-01
    x[1,10]   findWorstP[2,1]  -3.0593335897346242e-02
    x[1,10]   findWorstP[3,1]  -1.1145482667637161e-02
    x[1,10]   findWorstP[4,1]  -9.2779898702602379e-02
    x[1,11]   allocateEach[11]  1
    x[1,11]   findWorstP[1,2]  0.0312726410496226
    x[1,11]   findWorstP[1,3]  0.0312726410496226
    x[1,11]   findWorstP[1,4]  0.0312726410496226
    x[1,11]   findWorstP[2,1]  -3.0103842522988703e-02
    x[1,11]   findWorstP[3,1]  -1.1360431261941591e-01
    x[1,11]   findWorstP[4,1]  -7.9395257578292536e-03
    x[1,12]   allocateEach[12]  1
    x[1,12]   findWorstP[1,2]  3.3209068275525937e-02
    x[1,12]   findWorstP[1,3]  3.3209068275525937e-02
    x[1,12]   findWorstP[1,4]  3.3209068275525937e-02
    x[1,12]   findWorstP[2,1]  -8.0818852487675244e-02
    x[1,12]   findWorstP[3,1]  -1.0915749249385863e-01
    x[1,12]   findWorstP[4,1]  -7.0664821208572245e-02
    x[1,13]   allocateEach[13]  1
    x[1,13]   findWorstP[1,2]  1.0222228076877481e-01
    x[1,13]   findWorstP[1,3]  1.0222228076877481e-01
    x[1,13]   findWorstP[1,4]  1.0222228076877481e-01
    x[1,13]   findWorstP[2,1]  -2.1852382783818746e-02
    x[1,13]   findWorstP[3,1]  -3.5347102174506422e-02
    x[1,13]   findWorstP[4,1]  -4.6435578809679523e-02
    x[1,14]   allocateEach[14]  1
    x[1,14]   findWorstP[1,2]  2.9612846284562597e-02
    x[1,14]   findWorstP[1,3]  2.9612846284562597e-02
    x[1,14]   findWorstP[1,4]  2.9612846284562597e-02
    x[1,14]   findWorstP[2,1]  -5.3547078773469460e-02
    x[1,14]   findWorstP[3,1]  -7.5959876262396531e-02
    x[1,14]   findWorstP[4,1]  -1.0478044625610292e-01
    x[2,1]    allocateEach[1]  1
    x[2,1]    findWorstP[1,2]  -1.2393134245781356e-01
    x[2,1]    findWorstP[2,1]  8.9157721757980486e-03
    x[2,1]    findWorstP[2,3]  8.9157721757980486e-03
    x[2,1]    findWorstP[2,4]  8.9157721757980486e-03
    x[2,1]    findWorstP[3,2]  -4.9756619051951605e-02
    x[2,1]    findWorstP[4,2]  -3.7066330022662623e-02
    x[2,2]    allocateEach[2]  1
    x[2,2]    findWorstP[1,2]  -1.5386034012619712e-02
    x[2,2]    findWorstP[2,1]  0.0927240306282997
    x[2,2]    findWorstP[2,3]  0.0927240306282997
    x[2,2]    findWorstP[2,4]  0.0927240306282997
    x[2,2]    findWorstP[3,2]  -7.0762441997998374e-02
    x[2,2]    findWorstP[4,2]  -1.1238535598582443e-01
    x[2,3]    allocateEach[3]  1
    x[2,3]    findWorstP[1,2]  -2.2328191482354806e-02
    x[2,3]    findWorstP[2,1]  8.0172021957274214e-02
    x[2,3]    findWorstP[2,3]  8.0172021957274214e-02
    x[2,3]    findWorstP[2,4]  8.0172021957274214e-02
    x[2,3]    findWorstP[3,2]  -9.6169593303612064e-02
    x[2,3]    findWorstP[4,2]  -2.5065782469162086e-02
    x[2,4]    allocateEach[4]  1
    x[2,4]    findWorstP[1,2]  -5.0926718743825178e-02
    x[2,4]    findWorstP[2,1]  1.4415579874829551e-01
    x[2,4]    findWorstP[2,3]  1.4415579874829551e-01
    x[2,4]    findWorstP[2,4]  1.4415579874829551e-01
    x[2,4]    findWorstP[3,2]  -0.0942703120735147
    x[2,4]    findWorstP[4,2]  -0.1299831171004
    x[2,5]    allocateEach[5]  1
    x[2,5]    findWorstP[1,2]  -4.7541264342075805e-02
    x[2,5]    findWorstP[2,1]  8.6325652949197570e-02
    x[2,5]    findWorstP[2,3]  8.6325652949197570e-02
    x[2,5]    findWorstP[2,4]  8.6325652949197570e-02
    x[2,5]    findWorstP[3,2]  -5.3020653261759629e-02
    x[2,5]    findWorstP[4,2]  -7.7235463215051633e-02
    x[2,6]    allocateEach[6]  1
    x[2,6]    findWorstP[1,2]  -1.0069421574697351e-01
    x[2,6]    findWorstP[2,1]  0.0916751162546764
    x[2,6]    findWorstP[2,3]  0.0916751162546764
    x[2,6]    findWorstP[2,4]  0.0916751162546764
    x[2,6]    findWorstP[3,2]  -3.3356837412428356e-02
    x[2,6]    findWorstP[4,2]  -2.9719987223751645e-02
    x[2,7]    allocateEach[7]  1
    x[2,7]    findWorstP[1,2]  -7.7404397138829989e-02
    x[2,7]    findWorstP[2,1]  3.8023146043844616e-02
    x[2,7]    findWorstP[2,3]  3.8023146043844616e-02
    x[2,7]    findWorstP[2,4]  3.8023146043844616e-02
    x[2,7]    findWorstP[3,2]  -1.0214038758984625e-01
    x[2,7]    findWorstP[4,2]  -6.4732991619389460e-02
    x[2,8]    allocateEach[8]  1
    x[2,8]    findWorstP[1,2]  -0.0913677499242554
    x[2,8]    findWorstP[2,1]  8.7566868291318475e-02
    x[2,8]    findWorstP[2,3]  8.7566868291318475e-02
    x[2,8]    findWorstP[2,4]  8.7566868291318475e-02
    x[2,8]    findWorstP[3,2]  -0.0903693931398417
    x[2,8]    findWorstP[4,2]  -7.6535811519917243e-02
    x[2,9]    allocateEach[9]  1
    x[2,9]    findWorstP[1,2]  -1.2007166098033277e-01
    x[2,9]    findWorstP[2,1]  0.118562288031887
    x[2,9]    findWorstP[2,3]  0.118562288031887
    x[2,9]    findWorstP[2,4]  0.118562288031887
    x[2,9]    findWorstP[3,2]  -4.2193612956054963e-02
    x[2,9]    findWorstP[4,2]  -9.4255251190168365e-02
    x[2,10]   allocateEach[10]  1
    x[2,10]   findWorstP[1,2]  -1.2768564014068740e-01
    x[2,10]   findWorstP[2,1]  3.0593335897346242e-02
    x[2,10]   findWorstP[2,3]  3.0593335897346242e-02
    x[2,10]   findWorstP[2,4]  3.0593335897346242e-02
    x[2,10]   findWorstP[3,2]  -1.1145482667637161e-02
    x[2,10]   findWorstP[4,2]  -9.2779898702602379e-02
    x[2,11]   allocateEach[11]  1
    x[2,11]   findWorstP[1,2]  -0.0312726410496226
    x[2,11]   findWorstP[2,1]  3.0103842522988703e-02
    x[2,11]   findWorstP[2,3]  3.0103842522988703e-02
    x[2,11]   findWorstP[2,4]  3.0103842522988703e-02
    x[2,11]   findWorstP[3,2]  -1.1360431261941591e-01
    x[2,11]   findWorstP[4,2]  -7.9395257578292536e-03
    x[2,12]   allocateEach[12]  1
    x[2,12]   findWorstP[1,2]  -3.3209068275525937e-02
    x[2,12]   findWorstP[2,1]  8.0818852487675244e-02
    x[2,12]   findWorstP[2,3]  8.0818852487675244e-02
    x[2,12]   findWorstP[2,4]  8.0818852487675244e-02
    x[2,12]   findWorstP[3,2]  -1.0915749249385863e-01
    x[2,12]   findWorstP[4,2]  -7.0664821208572245e-02
    x[2,13]   allocateEach[13]  1
    x[2,13]   findWorstP[1,2]  -1.0222228076877481e-01
    x[2,13]   findWorstP[2,1]  2.1852382783818746e-02
    x[2,13]   findWorstP[2,3]  2.1852382783818746e-02
    x[2,13]   findWorstP[2,4]  2.1852382783818746e-02
    x[2,13]   findWorstP[3,2]  -3.5347102174506422e-02
    x[2,13]   findWorstP[4,2]  -4.6435578809679523e-02
    x[2,14]   allocateEach[14]  1
    x[2,14]   findWorstP[1,2]  -2.9612846284562597e-02
    x[2,14]   findWorstP[2,1]  5.3547078773469460e-02
    x[2,14]   findWorstP[2,3]  5.3547078773469460e-02
    x[2,14]   findWorstP[2,4]  5.3547078773469460e-02
    x[2,14]   findWorstP[3,2]  -7.5959876262396531e-02
    x[2,14]   findWorstP[4,2]  -1.0478044625610292e-01
    x[3,1]    allocateEach[1]  1
    x[3,1]    findWorstP[1,3]  -1.2393134245781356e-01
    x[3,1]    findWorstP[2,3]  -8.9157721757980486e-03
    x[3,1]    findWorstP[3,1]  4.9756619051951605e-02
    x[3,1]    findWorstP[3,2]  4.9756619051951605e-02
    x[3,1]    findWorstP[3,4]  4.9756619051951605e-02
    x[3,1]    findWorstP[4,3]  -3.7066330022662623e-02
    x[3,2]    allocateEach[2]  1
    x[3,2]    findWorstP[1,3]  -1.5386034012619712e-02
    x[3,2]    findWorstP[2,3]  -0.0927240306282997
    x[3,2]    findWorstP[3,1]  7.0762441997998374e-02
    x[3,2]    findWorstP[3,2]  7.0762441997998374e-02
    x[3,2]    findWorstP[3,4]  7.0762441997998374e-02
    x[3,2]    findWorstP[4,3]  -1.1238535598582443e-01
    x[3,3]    allocateEach[3]  1
    x[3,3]    findWorstP[1,3]  -2.2328191482354806e-02
    x[3,3]    findWorstP[2,3]  -8.0172021957274214e-02
    x[3,3]    findWorstP[3,1]  9.6169593303612064e-02
    x[3,3]    findWorstP[3,2]  9.6169593303612064e-02
    x[3,3]    findWorstP[3,4]  9.6169593303612064e-02
    x[3,3]    findWorstP[4,3]  -2.5065782469162086e-02
    x[3,4]    allocateEach[4]  1
    x[3,4]    findWorstP[1,3]  -5.0926718743825178e-02
    x[3,4]    findWorstP[2,3]  -1.4415579874829551e-01
    x[3,4]    findWorstP[3,1]  0.0942703120735147
    x[3,4]    findWorstP[3,2]  0.0942703120735147
    x[3,4]    findWorstP[3,4]  0.0942703120735147
    x[3,4]    findWorstP[4,3]  -0.1299831171004
    x[3,5]    allocateEach[5]  1
    x[3,5]    findWorstP[1,3]  -4.7541264342075805e-02
    x[3,5]    findWorstP[2,3]  -8.6325652949197570e-02
    x[3,5]    findWorstP[3,1]  5.3020653261759629e-02
    x[3,5]    findWorstP[3,2]  5.3020653261759629e-02
    x[3,5]    findWorstP[3,4]  5.3020653261759629e-02
    x[3,5]    findWorstP[4,3]  -7.7235463215051633e-02
    x[3,6]    allocateEach[6]  1
    x[3,6]    findWorstP[1,3]  -1.0069421574697351e-01
    x[3,6]    findWorstP[2,3]  -0.0916751162546764
    x[3,6]    findWorstP[3,1]  3.3356837412428356e-02
    x[3,6]    findWorstP[3,2]  3.3356837412428356e-02
    x[3,6]    findWorstP[3,4]  3.3356837412428356e-02
    x[3,6]    findWorstP[4,3]  -2.9719987223751645e-02
    x[3,7]    allocateEach[7]  1
    x[3,7]    findWorstP[1,3]  -7.7404397138829989e-02
    x[3,7]    findWorstP[2,3]  -3.8023146043844616e-02
    x[3,7]    findWorstP[3,1]  1.0214038758984625e-01
    x[3,7]    findWorstP[3,2]  1.0214038758984625e-01
    x[3,7]    findWorstP[3,4]  1.0214038758984625e-01
    x[3,7]    findWorstP[4,3]  -6.4732991619389460e-02
    x[3,8]    allocateEach[8]  1
    x[3,8]    findWorstP[1,3]  -0.0913677499242554
    x[3,8]    findWorstP[2,3]  -8.7566868291318475e-02
    x[3,8]    findWorstP[3,1]  0.0903693931398417
    x[3,8]    findWorstP[3,2]  0.0903693931398417
    x[3,8]    findWorstP[3,4]  0.0903693931398417
    x[3,8]    findWorstP[4,3]  -7.6535811519917243e-02
    x[3,9]    allocateEach[9]  1
    x[3,9]    findWorstP[1,3]  -1.2007166098033277e-01
    x[3,9]    findWorstP[2,3]  -0.118562288031887
    x[3,9]    findWorstP[3,1]  4.2193612956054963e-02
    x[3,9]    findWorstP[3,2]  4.2193612956054963e-02
    x[3,9]    findWorstP[3,4]  4.2193612956054963e-02
    x[3,9]    findWorstP[4,3]  -9.4255251190168365e-02
    x[3,10]   allocateEach[10]  1
    x[3,10]   findWorstP[1,3]  -1.2768564014068740e-01
    x[3,10]   findWorstP[2,3]  -3.0593335897346242e-02
    x[3,10]   findWorstP[3,1]  1.1145482667637161e-02
    x[3,10]   findWorstP[3,2]  1.1145482667637161e-02
    x[3,10]   findWorstP[3,4]  1.1145482667637161e-02
    x[3,10]   findWorstP[4,3]  -9.2779898702602379e-02
    x[3,11]   allocateEach[11]  1
    x[3,11]   findWorstP[1,3]  -0.0312726410496226
    x[3,11]   findWorstP[2,3]  -3.0103842522988703e-02
    x[3,11]   findWorstP[3,1]  1.1360431261941591e-01
    x[3,11]   findWorstP[3,2]  1.1360431261941591e-01
    x[3,11]   findWorstP[3,4]  1.1360431261941591e-01
    x[3,11]   findWorstP[4,3]  -7.9395257578292536e-03
    x[3,12]   allocateEach[12]  1
    x[3,12]   findWorstP[1,3]  -3.3209068275525937e-02
    x[3,12]   findWorstP[2,3]  -8.0818852487675244e-02
    x[3,12]   findWorstP[3,1]  1.0915749249385863e-01
    x[3,12]   findWorstP[3,2]  1.0915749249385863e-01
    x[3,12]   findWorstP[3,4]  1.0915749249385863e-01
    x[3,12]   findWorstP[4,3]  -7.0664821208572245e-02
    x[3,13]   allocateEach[13]  1
    x[3,13]   findWorstP[1,3]  -1.0222228076877481e-01
    x[3,13]   findWorstP[2,3]  -2.1852382783818746e-02
    x[3,13]   findWorstP[3,1]  3.5347102174506422e-02
    x[3,13]   findWorstP[3,2]  3.5347102174506422e-02
    x[3,13]   findWorstP[3,4]  3.5347102174506422e-02
    x[3,13]   findWorstP[4,3]  -4.6435578809679523e-02
    x[3,14]   allocateEach[14]  1
    x[3,14]   findWorstP[1,3]  -2.9612846284562597e-02
    x[3,14]   findWorstP[2,3]  -5.3547078773469460e-02
    x[3,14]   findWorstP[3,1]  7.5959876262396531e-02
    x[3,14]   findWorstP[3,2]  7.5959876262396531e-02
    x[3,14]   findWorstP[3,4]  7.5959876262396531e-02
    x[3,14]   findWorstP[4,3]  -1.0478044625610292e-01
    x[4,1]    allocateEach[1]  1
    x[4,1]    findWorstP[1,4]  -1.2393134245781356e-01
    x[4,1]    findWorstP[2,4]  -8.9157721757980486e-03
    x[4,1]    findWorstP[3,4]  -4.9756619051951605e-02
    x[4,1]    findWorstP[4,1]  3.7066330022662623e-02
    x[4,1]    findWorstP[4,2]  3.7066330022662623e-02
    x[4,1]    findWorstP[4,3]  3.7066330022662623e-02
    x[4,2]    allocateEach[2]  1
    x[4,2]    findWorstP[1,4]  -1.5386034012619712e-02
    x[4,2]    findWorstP[2,4]  -0.0927240306282997
    x[4,2]    findWorstP[3,4]  -7.0762441997998374e-02
    x[4,2]    findWorstP[4,1]  1.1238535598582443e-01
    x[4,2]    findWorstP[4,2]  1.1238535598582443e-01
    x[4,2]    findWorstP[4,3]  1.1238535598582443e-01
    x[4,3]    allocateEach[3]  1
    x[4,3]    findWorstP[1,4]  -2.2328191482354806e-02
    x[4,3]    findWorstP[2,4]  -8.0172021957274214e-02
    x[4,3]    findWorstP[3,4]  -9.6169593303612064e-02
    x[4,3]    findWorstP[4,1]  2.5065782469162086e-02
    x[4,3]    findWorstP[4,2]  2.5065782469162086e-02
    x[4,3]    findWorstP[4,3]  2.5065782469162086e-02
    x[4,4]    allocateEach[4]  1
    x[4,4]    findWorstP[1,4]  -5.0926718743825178e-02
    x[4,4]    findWorstP[2,4]  -1.4415579874829551e-01
    x[4,4]    findWorstP[3,4]  -0.0942703120735147
    x[4,4]    findWorstP[4,1]  0.1299831171004
    x[4,4]    findWorstP[4,2]  0.1299831171004
    x[4,4]    findWorstP[4,3]  0.1299831171004
    x[4,5]    allocateEach[5]  1
    x[4,5]    findWorstP[1,4]  -4.7541264342075805e-02
    x[4,5]    findWorstP[2,4]  -8.6325652949197570e-02
    x[4,5]    findWorstP[3,4]  -5.3020653261759629e-02
    x[4,5]    findWorstP[4,1]  7.7235463215051633e-02
    x[4,5]    findWorstP[4,2]  7.7235463215051633e-02
    x[4,5]    findWorstP[4,3]  7.7235463215051633e-02
    x[4,6]    allocateEach[6]  1
    x[4,6]    findWorstP[1,4]  -1.0069421574697351e-01
    x[4,6]    findWorstP[2,4]  -0.0916751162546764
    x[4,6]    findWorstP[3,4]  -3.3356837412428356e-02
    x[4,6]    findWorstP[4,1]  2.9719987223751645e-02
    x[4,6]    findWorstP[4,2]  2.9719987223751645e-02
    x[4,6]    findWorstP[4,3]  2.9719987223751645e-02
    x[4,7]    allocateEach[7]  1
    x[4,7]    findWorstP[1,4]  -7.7404397138829989e-02
    x[4,7]    findWorstP[2,4]  -3.8023146043844616e-02
    x[4,7]    findWorstP[3,4]  -1.0214038758984625e-01
    x[4,7]    findWorstP[4,1]  6.4732991619389460e-02
    x[4,7]    findWorstP[4,2]  6.4732991619389460e-02
    x[4,7]    findWorstP[4,3]  6.4732991619389460e-02
    x[4,8]    allocateEach[8]  1
    x[4,8]    findWorstP[1,4]  -0.0913677499242554
    x[4,8]    findWorstP[2,4]  -8.7566868291318475e-02
    x[4,8]    findWorstP[3,4]  -0.0903693931398417
    x[4,8]    findWorstP[4,1]  7.6535811519917243e-02
    x[4,8]    findWorstP[4,2]  7.6535811519917243e-02
    x[4,8]    findWorstP[4,3]  7.6535811519917243e-02
    x[4,9]    allocateEach[9]  1
    x[4,9]    findWorstP[1,4]  -1.2007166098033277e-01
    x[4,9]    findWorstP[2,4]  -0.118562288031887
    x[4,9]    findWorstP[3,4]  -4.2193612956054963e-02
    x[4,9]    findWorstP[4,1]  9.4255251190168365e-02
    x[4,9]    findWorstP[4,2]  9.4255251190168365e-02
    x[4,9]    findWorstP[4,3]  9.4255251190168365e-02
    x[4,10]   allocateEach[10]  1
    x[4,10]   findWorstP[1,4]  -1.2768564014068740e-01
    x[4,10]   findWorstP[2,4]  -3.0593335897346242e-02
    x[4,10]   findWorstP[3,4]  -1.1145482667637161e-02
    x[4,10]   findWorstP[4,1]  9.2779898702602379e-02
    x[4,10]   findWorstP[4,2]  9.2779898702602379e-02
    x[4,10]   findWorstP[4,3]  9.2779898702602379e-02
    x[4,11]   allocateEach[11]  1
    x[4,11]   findWorstP[1,4]  -0.0312726410496226
    x[4,11]   findWorstP[2,4]  -3.0103842522988703e-02
    x[4,11]   findWorstP[3,4]  -1.1360431261941591e-01
    x[4,11]   findWorstP[4,1]  7.9395257578292536e-03
    x[4,11]   findWorstP[4,2]  7.9395257578292536e-03
    x[4,11]   findWorstP[4,3]  7.9395257578292536e-03
    x[4,12]   allocateEach[12]  1
    x[4,12]   findWorstP[1,4]  -3.3209068275525937e-02
    x[4,12]   findWorstP[2,4]  -8.0818852487675244e-02
    x[4,12]   findWorstP[3,4]  -1.0915749249385863e-01
    x[4,12]   findWorstP[4,1]  7.0664821208572245e-02
    x[4,12]   findWorstP[4,2]  7.0664821208572245e-02
    x[4,12]   findWorstP[4,3]  7.0664821208572245e-02
    x[4,13]   allocateEach[13]  1
    x[4,13]   findWorstP[1,4]  -1.0222228076877481e-01
    x[4,13]   findWorstP[2,4]  -2.1852382783818746e-02
    x[4,13]   findWorstP[3,4]  -3.5347102174506422e-02
    x[4,13]   findWorstP[4,1]  4.6435578809679523e-02
    x[4,13]   findWorstP[4,2]  4.6435578809679523e-02
    x[4,13]   findWorstP[4,3]  4.6435578809679523e-02
    x[4,14]   allocateEach[14]  1
    x[4,14]   findWorstP[1,4]  -2.9612846284562597e-02
    x[4,14]   findWorstP[2,4]  -5.3547078773469460e-02
    x[4,14]   findWorstP[3,4]  -7.5959876262396531e-02
    x[4,14]   findWorstP[4,1]  1.0478044625610292e-01
    x[4,14]   findWorstP[4,2]  1.0478044625610292e-01
    x[4,14]   findWorstP[4,3]  1.0478044625610292e-01
    MARKER    'MARKER'                 'INTEND'
RHS
    RHS1      allocateEach[1]  1
    RHS1      allocateEach[2]  1
    RHS1      allocateEach[3]  1
    RHS1      allocateEach[4]  1
    RHS1      allocateEach[5]  1
    RHS1      allocateEach[6]  1
    RHS1      allocateEach[7]  1
    RHS1      allocateEach[8]  1
    RHS1      allocateEach[9]  1
    RHS1      allocateEach[10]  1
    RHS1      allocateEach[11]  1
    RHS1      allocateEach[12]  1
    RHS1      allocateEach[13]  1
    RHS1      allocateEach[14]  1
    RHS1      allocateAllCash  1
BOUNDS
 UP BND1      z         1
 MI BND1      cashProportion[1]
 UP BND1      cashProportion[1]  1
 MI BND1      cashProportion[2]
 UP BND1      cashProportion[2]  1
 MI BND1      cashProportion[3]
 UP BND1      cashProportion[3]  1
 MI BND1      cashProportion[4]
 UP BND1      cashProportion[4]  1
 BV BND1      x[1,1]  
 BV BND1      x[1,2]  
 BV BND1      x[1,3]  
 BV BND1      x[1,4]  
 BV BND1      x[1,5]  
 BV BND1      x[1,6]  
 BV BND1      x[1,7]  
 BV BND1      x[1,8]  
 BV BND1      x[1,9]  
 BV BND1      x[1,10] 
 BV BND1      x[1,11] 
 BV BND1      x[1,12] 
 BV BND1      x[1,13] 
 BV BND1      x[1,14] 
 BV BND1      x[2,1]  
 BV BND1      x[2,2]  
 BV BND1      x[2,3]  
 BV BND1      x[2,4]  
 BV BND1      x[2,5]  
 BV BND1      x[2,6]  
 BV BND1      x[2,7]  
 BV BND1      x[2,8]  
 BV BND1      x[2,9]  
 BV BND1      x[2,10] 
 BV BND1      x[2,11] 
 BV BND1      x[2,12] 
 BV BND1      x[2,13] 
 BV BND1      x[2,14] 
 BV BND1      x[3,1]  
 BV BND1      x[3,2]  
 BV BND1      x[3,3]  
 BV BND1      x[3,4]  
 BV BND1      x[3,5]  
 BV BND1      x[3,6]  
 BV BND1      x[3,7]  
 BV BND1      x[3,8]  
 BV BND1      x[3,9]  
 BV BND1      x[3,10] 
 BV BND1      x[3,11] 
 BV BND1      x[3,12] 
 BV BND1      x[3,13] 
 BV BND1      x[3,14] 
 BV BND1      x[4,1]  
 BV BND1      x[4,2]  
 BV BND1      x[4,3]  
 BV BND1      x[4,4]  
 BV BND1      x[4,5]  
 BV BND1      x[4,6]  
 BV BND1      x[4,7]  
 BV BND1      x[4,8]  
 BV BND1      x[4,9]  
 BV BND1      x[4,10] 
 BV BND1      x[4,11] 
 BV BND1      x[4,12] 
 BV BND1      x[4,13] 
 BV BND1      x[4,14] 
ENDATA
